benchmarks/bfuzz0/275692092329775319414307101491902314263.smt2
(set-logic QF_FP)
(declare-const x0 (_ FloatingPoint 11 53))
(declare-const x1 (_ FloatingPoint 11 53))
(declare-const x2 (_ FloatingPoint 11 53))
(declare-const x3 (_ FloatingPoint 11 53))
(declare-const x4 (_ FloatingPoint 11 53))
(declare-const x5 (_ FloatingPoint 11 53))
(declare-const x6 (_ FloatingPoint 11 53))
(declare-const x7 (_ FloatingPoint 11 53))
(declare-const x8 (_ FloatingPoint 11 53))
(declare-const x9 (_ FloatingPoint 11 53))
(declare-const x10 (_ FloatingPoint 11 53))
(assert (fp.eq (fp.neg x8) (fp.sub RNE x5 x5)))
(assert (fp.leq (fp.mul RNE x5 x3) (fp.sub RNE x1 x6)))
(assert (fp.gt (fp.div RNE x7 x2) (fp.add RNE x4 x7)))
(assert (fp.eq (fp.sub RNE x10 x0) (fp.div RNE x5 x6)))
(assert (fp.leq (fp.neg x5) (fp.div RNE x6 x6)))
(check-sat)
