db/data/275692092329775319414307101491902314263.z3.out
sat
-------------------
263.343667084
